
--- Job mappingTest copy 2.gms Start 03/17/25 21:04:59 46.2.0 ac4adda6 WEX-WEI x86 64bit/MS Windows
--- Applying:
    C:\GAMS\46\gmsprmNT.txt
--- GAMS Parameters defined
    Input "C:\Users\sebas\Documents\CloudDrive\Uni\WS24\Research Project\gams\mappingTest copy 2.gms"
    PageSize 0
    ScrDir "C:\Users\sebas\Documents\CloudDrive\Uni\WS24\Research Project\gams\225b\"
    SysDir C:\GAMS\46\
    LogOption 3
    ErrMsg 1
    ErrorLog 99
    IDE 1
    LstTitleLeftAligned 1
Licensee: Course License                                 S241105|0002AO-GEN
          Dresden University of Technology                          DCE3851
          C:\Users\sebas\Documents\GAMS\gamslice.txt
          License Admin: Hannes Hobbie, hannes.hobbie@tu-dresden.de        
          Course license for use within the course and related course work
          The evaluation period of the license will expire on May 04, 2025
Processor information: 1 socket(s), 8 core(s), and 16 thread(s) available
GAMS 46.2.0   Copyright (C) 1987-2024 GAMS Development. All rights reserved
--- Starting compilation
--- mappingTest copy 2.gms(74) 3 Mb
--- Starting execution: elapsed 0:00:00.007
--- mappingTest copy 2.gms(21) 4 Mb
--- Generating LP model myModel
--- mappingTest copy 2.gms(73) 4 Mb
---   139 rows  43 columns  245 non-zeroes
--- Range statistics (absolute non-zero finite values)
--- RHS       [min, max] : [ 2.500E+01, 1.000E+02] - Zero values observed as well
--- Bound     [min, max] : [        NA,        NA] - Zero values observed as well
--- Matrix    [min, max] : [ 1.000E+00, 6.800E+01]
--- Executing CPLEX (Solvelink=2): elapsed 0:00:00.013

IBM ILOG CPLEX   46.2.0 ac4adda6 Mar 5, 2024           WEI x86 64bit/MS Window

--- GAMS/CPLEX licensed for continuous and discrete problems.
--- GMO setup time: 0.00s
--- GMO memory 0.52 Mb (peak 0.52 Mb)
--- Dictionary memory 0.00 Mb
--- Cplex 22.1.1.0 link memory 0.00 Mb (peak 0.01 Mb)
--- Starting Cplex

Version identifier: 22.1.1.0 | 2022-11-27 | 9160aff4d
CPXPARAM_Advance                                 0
CPXPARAM_MIP_Display                             4
CPXPARAM_MIP_Pool_Capacity                       0
CPXPARAM_MIP_Tolerances_AbsMIPGap                0
Tried aggregator 1 time.
LP Presolve eliminated 106 rows and 11 columns.
Aggregator did 32 substitutions.
All rows and columns eliminated.
Presolve time = 0.00 sec. (0.06 ticks)

--- LP status (1): optimal.
--- Cplex Time: 0.00sec (det. 0.09 ticks)


Optimal solution found
Objective:        10800.000000

--- Reading solution for model myModel
*** Status: Normal completion
--- Job mappingTest copy 2.gms Stop 03/17/25 21:04:59 elapsed 0:00:00.045
